Maximize
  - 2.8151193488238 edge_0_1_0_0 - 1.3012706397774 edge_0_2_0_0
   - 2.8635808577904 edge_0_3_0_0 - 0.6657638465365 edge_0_4_0_0
   - 3.9499051844201 edge_0_5_0_0 - 1.3982200919479 edge_0_6_0_0
   - 3.7523715791712 edge_0_7_0_0 - 2.943455669352 edge_0_9_0_0
   - 2.8308585023271 edge_0_12_0_0 + 0.2657782583021077 edge_1_2_0_0
   - 0.00546369782639885 edge_1_4_0_0 + 0.1745869404300903 edge_1_6_0_0
   + 0.1101422879552368 edge_1_7_0_0 - 0.4709222456414411 edge_1_9_0_0
   - 0.4452488230333246 edge_1_10_0_0 - 0.3001553261353636 edge_1_11_0_0
   - 0.4859300600578563 edge_1_12_0_0 - 0.1669116551061176 edge_1_13_0_0
   + 0.4436726954491012 edge_2_1_0_0 + 0.3274607633040412 edge_2_2_0_0
   + 0.2105762983994127 edge_2_3_0_0 + 0.3896406650836404 edge_2_4_0_0
   + 0.2680522224102439 edge_2_5_0_0 + 0.6983237385591634 edge_2_6_0_0
   + 0.5841127253485957 edge_2_7_0_0 + 0.3164012491977286 edge_2_9_0_0
   - 0.0879082387440638 edge_2_10_0_0 + 0.3661508935336558 edge_2_11_0_0
   + 0.4655948229285095 edge_2_12_0_0 + 0.9225568113110529 edge_2_13_0_0
   - 0.2937082142934831 edge_3_2_0_0 + 0.1610781669913475 edge_3_5_0_0
   + 0.2333276308017987 edge_3_6_0_0 - 0.318910666860481 edge_3_7_0_0
   - 0.6883630416930899 edge_3_9_0_0 - 0.4016192388213265 edge_3_12_0_0
   - 0.7169363420943048 edge_3_13_0_0 + 0.8650801121888974 edge_4_1_0_0
   + 1.016283645523395 edge_4_2_0_0 + 0.6995404513307217 edge_4_6_0_0
   + 1.159086216119601 edge_4_7_0_0 + 0.5918920161625127 edge_4_9_0_0
   + 0.3402727639693527 edge_4_10_0_0 + 0.7857451605150416 edge_4_11_0_0
   + 0.1495029230824768 edge_4_12_0_0 + 1.62731254667375 edge_4_13_0_0
   - 0.6963308991569168 edge_5_2_0_0 + 0.26947240296897 edge_5_3_0_0
   + 0.5447657905024702 edge_5_6_0_0 - 0.1436386572600445 edge_5_7_0_0
   - 0.3634964072880081 edge_5_9_0_0 - 0.3847298611898833 edge_5_12_0_0
   - 0.2822508540278615 edge_5_13_0_0 - 0.2450427196153745 edge_6_1_0_0
   + 2.004385891996133 edge_6_2_0_0 + 3.306524518624544 edge_6_3_0_0
   + 0.1630190879937139 edge_6_4_0_0 + 2.505618474047859 edge_6_5_0_0
   + 2.206611816324956 edge_6_7_0_0 + 0.5551875617766661 edge_6_9_0_0
   + 0.696866871899579 edge_6_12_0_0 + 2.049456220036614 edge_6_13_0_0
   - 0.9498378574732683 edge_7_1_0_0 - 0.1750698144565969 edge_7_2_0_0
   - 0.4158602423863875 edge_7_4_0_0 - 0.436062439544585 edge_7_6_0_0
   + 0.4168421078037243 edge_7_9_0_0 - 0.6640691933215045 edge_7_12_0_0
   - 0.6352514954557424 edge_7_13_0_0 - 1.42788424588903 edge_9_1_0_0
   - 0.2302383298233783 edge_9_2_0_0 - 0.7660863047962286 edge_9_4_0_0
   - 0.9996678996323196 edge_9_5_0_0 - 0.5519651973037319 edge_9_6_0_0
   - 0.3383360991845006 edge_9_7_0_0 + 2.271280982671314 edge_9_10_0_0
   + 1.739231588080942 edge_9_11_0_0 + 1.661908646536858 edge_9_12_0_0
   + 2.018576493571305 edge_9_13_0_0 - 0.6715179917588586 edge_10_1_0_0
   - 0.0939014811770937 edge_10_2_0_0 - 0.4878011058387652 edge_10_4_0_0
   - 0.2887292038177188 edge_10_6_0_0 + 0.069254356949858 edge_10_7_0_0
   + 0.8062994870872053 edge_10_9_0_0 + 1.044106182401991 edge_10_11_0_0
   + 0.6190955203994668 edge_10_12_0_0 + 0.4087113887933508 edge_10_13_0_0
   - 1.118285611080444 edge_11_10_0_0 + 0.055588531971571 edge_11_12_0_0
   + 0.1071643495356 edge_11_13_0_0 - 0.7320294368219412 edge_12_2_0_0
   - 0.1655053469258533 edge_12_5_0_0 - 0.1933538637580973 edge_12_6_0_0
   - 0.0221616363064528 edge_12_7_0_0 - 0.0241395545208186 edge_12_9_0_0
   - 0.6896397830404203 edge_12_10_0_0 + 0.0846054506892646 edge_12_11_0_0
   + 2.219568622423897 edge_12_13_0_0 - 1.474554434136844 edge_13_9_0_0
   - 1.04693886031091 edge_13_11_0_0 - 0.708800731235805 edge_13_12_0_0
Subject To
 one_parent_1: edge_0_1_0_0 + edge_2_1_0_0 + edge_4_1_0_0 + edge_6_1_0_0
   + edge_7_1_0_0 + edge_9_1_0_0 + edge_10_1_0_0 = 1
 consume_one_flow_unit_1: flow_0_1_0_0 - flow_1_2_0_0 - flow_1_4_0_0
   - flow_1_6_0_0 - flow_1_7_0_0 - flow_1_9_0_0 - flow_1_10_0_0
   - flow_1_11_0_0 - flow_1_12_0_0 - flow_1_13_0_0 + flow_2_1_0_0
   + flow_4_1_0_0 + flow_6_1_0_0 + flow_7_1_0_0 + flow_9_1_0_0
   + flow_10_1_0_0 = 1
 one_parent_2: edge_0_2_0_0 + edge_1_2_0_0 + edge_2_2_0_0 + edge_3_2_0_0
   + edge_4_2_0_0 + edge_5_2_0_0 + edge_6_2_0_0 + edge_7_2_0_0
   + edge_9_2_0_0 + edge_10_2_0_0 + edge_12_2_0_0 = 1
 consume_one_flow_unit_2: flow_0_2_0_0 + flow_1_2_0_0 - flow_2_1_0_0
   - flow_2_3_0_0 - flow_2_4_0_0 - flow_2_5_0_0 - flow_2_6_0_0
   - flow_2_7_0_0 - flow_2_9_0_0 - flow_2_10_0_0 - flow_2_11_0_0
   - flow_2_12_0_0 - flow_2_13_0_0 + flow_3_2_0_0 + flow_4_2_0_0
   + flow_5_2_0_0 + flow_6_2_0_0 + flow_7_2_0_0 + flow_9_2_0_0
   + flow_10_2_0_0 + flow_12_2_0_0 = 1
 one_parent_3: edge_0_3_0_0 + edge_2_3_0_0 + edge_5_3_0_0 + edge_6_3_0_0
   = 1
 consume_one_flow_unit_3: flow_0_3_0_0 + flow_2_3_0_0 - flow_3_2_0_0
   - flow_3_5_0_0 - flow_3_6_0_0 - flow_3_7_0_0 - flow_3_9_0_0
   - flow_3_12_0_0 - flow_3_13_0_0 + flow_5_3_0_0 + flow_6_3_0_0 = 1
 one_parent_4: edge_0_4_0_0 + edge_1_4_0_0 + edge_2_4_0_0 + edge_6_4_0_0
   + edge_7_4_0_0 + edge_9_4_0_0 + edge_10_4_0_0 = 1
 consume_one_flow_unit_4: flow_0_4_0_0 + flow_1_4_0_0 + flow_2_4_0_0
   - flow_4_1_0_0 - flow_4_2_0_0 - flow_4_6_0_0 - flow_4_7_0_0
   - flow_4_9_0_0 - flow_4_10_0_0 - flow_4_11_0_0 - flow_4_12_0_0
   - flow_4_13_0_0 + flow_6_4_0_0 + flow_7_4_0_0 + flow_9_4_0_0
   + flow_10_4_0_0 = 1
 one_parent_5: edge_0_5_0_0 + edge_2_5_0_0 + edge_3_5_0_0 + edge_6_5_0_0
   + edge_9_5_0_0 + edge_12_5_0_0 = 1
 consume_one_flow_unit_5: flow_0_5_0_0 + flow_2_5_0_0 + flow_3_5_0_0
   - flow_5_2_0_0 - flow_5_3_0_0 - flow_5_6_0_0 - flow_5_7_0_0
   - flow_5_9_0_0 - flow_5_12_0_0 - flow_5_13_0_0 + flow_6_5_0_0
   + flow_9_5_0_0 + flow_12_5_0_0 = 1
 one_parent_6: edge_0_6_0_0 + edge_1_6_0_0 + edge_2_6_0_0 + edge_3_6_0_0
   + edge_4_6_0_0 + edge_5_6_0_0 + edge_7_6_0_0 + edge_9_6_0_0
   + edge_10_6_0_0 + edge_12_6_0_0 = 1
 consume_one_flow_unit_6: flow_0_6_0_0 + flow_1_6_0_0 + flow_2_6_0_0
   + flow_3_6_0_0 + flow_4_6_0_0 + flow_5_6_0_0 - flow_6_1_0_0
   - flow_6_2_0_0 - flow_6_3_0_0 - flow_6_4_0_0 - flow_6_5_0_0
   - flow_6_7_0_0 - flow_6_9_0_0 - flow_6_12_0_0 - flow_6_13_0_0
   + flow_7_6_0_0 + flow_9_6_0_0 + flow_10_6_0_0 + flow_12_6_0_0 = 1
 one_parent_7: edge_0_7_0_0 + edge_1_7_0_0 + edge_2_7_0_0 + edge_3_7_0_0
   + edge_4_7_0_0 + edge_5_7_0_0 + edge_6_7_0_0 + edge_9_7_0_0
   + edge_10_7_0_0 + edge_12_7_0_0 = 1
 consume_one_flow_unit_7: flow_0_7_0_0 + flow_1_7_0_0 + flow_2_7_0_0
   + flow_3_7_0_0 + flow_4_7_0_0 + flow_5_7_0_0 + flow_6_7_0_0
   - flow_7_1_0_0 - flow_7_2_0_0 - flow_7_4_0_0 - flow_7_6_0_0
   - flow_7_9_0_0 - flow_7_12_0_0 - flow_7_13_0_0 + flow_9_7_0_0
   + flow_10_7_0_0 + flow_12_7_0_0 = 1
 one_parent_8: = 1
 consume_one_flow_unit_8: = 1
 one_parent_9: edge_0_9_0_0 + edge_1_9_0_0 + edge_2_9_0_0 + edge_3_9_0_0
   + edge_4_9_0_0 + edge_5_9_0_0 + edge_6_9_0_0 + edge_7_9_0_0
   + edge_10_9_0_0 + edge_12_9_0_0 + edge_13_9_0_0 = 1
 consume_one_flow_unit_9: flow_0_9_0_0 + flow_1_9_0_0 + flow_2_9_0_0
   + flow_3_9_0_0 + flow_4_9_0_0 + flow_5_9_0_0 + flow_6_9_0_0
   + flow_7_9_0_0 - flow_9_1_0_0 - flow_9_2_0_0 - flow_9_4_0_0
   - flow_9_5_0_0 - flow_9_6_0_0 - flow_9_7_0_0 - flow_9_10_0_0
   - flow_9_11_0_0 - flow_9_12_0_0 - flow_9_13_0_0 + flow_10_9_0_0
   + flow_12_9_0_0 + flow_13_9_0_0 = 1
 one_parent_10: edge_1_10_0_0 + edge_2_10_0_0 + edge_4_10_0_0
   + edge_9_10_0_0 + edge_11_10_0_0 + edge_12_10_0_0 = 1
 consume_one_flow_unit_10: flow_1_10_0_0 + flow_2_10_0_0 + flow_4_10_0_0
   + flow_9_10_0_0 - flow_10_1_0_0 - flow_10_2_0_0 - flow_10_4_0_0
   - flow_10_6_0_0 - flow_10_7_0_0 - flow_10_9_0_0 - flow_10_11_0_0
   - flow_10_12_0_0 - flow_10_13_0_0 + flow_11_10_0_0 + flow_12_10_0_0 = 1
 one_parent_11: edge_1_11_0_0 + edge_2_11_0_0 + edge_4_11_0_0
   + edge_9_11_0_0 + edge_10_11_0_0 + edge_12_11_0_0 + edge_13_11_0_0 = 1
 consume_one_flow_unit_11: flow_1_11_0_0 + flow_2_11_0_0 + flow_4_11_0_0
   + flow_9_11_0_0 + flow_10_11_0_0 - flow_11_10_0_0 - flow_11_12_0_0
   - flow_11_13_0_0 + flow_12_11_0_0 + flow_13_11_0_0 = 1
 one_parent_12: edge_0_12_0_0 + edge_1_12_0_0 + edge_2_12_0_0
   + edge_3_12_0_0 + edge_4_12_0_0 + edge_5_12_0_0 + edge_6_12_0_0
   + edge_7_12_0_0 + edge_9_12_0_0 + edge_10_12_0_0 + edge_11_12_0_0
   + edge_13_12_0_0 = 1
 consume_one_flow_unit_12: flow_0_12_0_0 + flow_1_12_0_0 + flow_2_12_0_0
   + flow_3_12_0_0 + flow_4_12_0_0 + flow_5_12_0_0 + flow_6_12_0_0
   + flow_7_12_0_0 + flow_9_12_0_0 + flow_10_12_0_0 + flow_11_12_0_0
   - flow_12_2_0_0 - flow_12_5_0_0 - flow_12_6_0_0 - flow_12_7_0_0
   - flow_12_9_0_0 - flow_12_10_0_0 - flow_12_11_0_0 - flow_12_13_0_0
   + flow_13_12_0_0 = 1
 one_parent_13: edge_1_13_0_0 + edge_2_13_0_0 + edge_3_13_0_0
   + edge_4_13_0_0 + edge_5_13_0_0 + edge_6_13_0_0 + edge_7_13_0_0
   + edge_9_13_0_0 + edge_10_13_0_0 + edge_11_13_0_0 + edge_12_13_0_0 = 1
 consume_one_flow_unit_13: flow_1_13_0_0 + flow_2_13_0_0 + flow_3_13_0_0
   + flow_4_13_0_0 + flow_5_13_0_0 + flow_6_13_0_0 + flow_7_13_0_0
   + flow_9_13_0_0 + flow_10_13_0_0 + flow_11_13_0_0 + flow_12_13_0_0
   - flow_13_9_0_0 - flow_13_11_0_0 - flow_13_12_0_0 = 1
 root_flow: flow_0_1_0_0 + flow_0_2_0_0 + flow_0_3_0_0 + flow_0_4_0_0
   + flow_0_5_0_0 + flow_0_6_0_0 + flow_0_7_0_0 + flow_0_9_0_0
   + flow_0_12_0_0 = 13
 inactive_no_flow_0_1_0_0: flow_0_1_0_0 - 1000 edge_0_1_0_0 <= 0
 inactive_no_flow_0_2_0_0: flow_0_2_0_0 - 1000 edge_0_2_0_0 <= 0
 inactive_no_flow_0_3_0_0: flow_0_3_0_0 - 1000 edge_0_3_0_0 <= 0
 inactive_no_flow_0_4_0_0: flow_0_4_0_0 - 1000 edge_0_4_0_0 <= 0
 inactive_no_flow_0_5_0_0: flow_0_5_0_0 - 1000 edge_0_5_0_0 <= 0
 inactive_no_flow_0_6_0_0: flow_0_6_0_0 - 1000 edge_0_6_0_0 <= 0
 inactive_no_flow_0_7_0_0: flow_0_7_0_0 - 1000 edge_0_7_0_0 <= 0
 inactive_no_flow_0_9_0_0: flow_0_9_0_0 - 1000 edge_0_9_0_0 <= 0
 inactive_no_flow_0_12_0_0: flow_0_12_0_0 - 1000 edge_0_12_0_0 <= 0
 inactive_no_flow_1_2_0_0: flow_1_2_0_0 - 1000 edge_1_2_0_0 <= 0
 inactive_no_flow_1_4_0_0: flow_1_4_0_0 - 1000 edge_1_4_0_0 <= 0
 inactive_no_flow_1_6_0_0: flow_1_6_0_0 - 1000 edge_1_6_0_0 <= 0
 inactive_no_flow_1_7_0_0: flow_1_7_0_0 - 1000 edge_1_7_0_0 <= 0
 inactive_no_flow_1_9_0_0: flow_1_9_0_0 - 1000 edge_1_9_0_0 <= 0
 inactive_no_flow_1_10_0_0: flow_1_10_0_0 - 1000 edge_1_10_0_0 <= 0
 inactive_no_flow_1_11_0_0: flow_1_11_0_0 - 1000 edge_1_11_0_0 <= 0
 inactive_no_flow_1_12_0_0: flow_1_12_0_0 - 1000 edge_1_12_0_0 <= 0
 inactive_no_flow_1_13_0_0: flow_1_13_0_0 - 1000 edge_1_13_0_0 <= 0
 inactive_no_flow_2_1_0_0: flow_2_1_0_0 - 1000 edge_2_1_0_0 <= 0
 inactive_no_flow_2_2_0_0: flow_2_2_0_0 - 1000 edge_2_2_0_0 <= 0
 inactive_no_flow_2_3_0_0: flow_2_3_0_0 - 1000 edge_2_3_0_0 <= 0
 inactive_no_flow_2_4_0_0: flow_2_4_0_0 - 1000 edge_2_4_0_0 <= 0
 inactive_no_flow_2_5_0_0: flow_2_5_0_0 - 1000 edge_2_5_0_0 <= 0
 inactive_no_flow_2_6_0_0: flow_2_6_0_0 - 1000 edge_2_6_0_0 <= 0
 inactive_no_flow_2_7_0_0: flow_2_7_0_0 - 1000 edge_2_7_0_0 <= 0
 inactive_no_flow_2_9_0_0: flow_2_9_0_0 - 1000 edge_2_9_0_0 <= 0
 inactive_no_flow_2_10_0_0: flow_2_10_0_0 - 1000 edge_2_10_0_0 <= 0
 inactive_no_flow_2_11_0_0: flow_2_11_0_0 - 1000 edge_2_11_0_0 <= 0
 inactive_no_flow_2_12_0_0: flow_2_12_0_0 - 1000 edge_2_12_0_0 <= 0
 inactive_no_flow_2_13_0_0: flow_2_13_0_0 - 1000 edge_2_13_0_0 <= 0
 inactive_no_flow_3_2_0_0: flow_3_2_0_0 - 1000 edge_3_2_0_0 <= 0
 inactive_no_flow_3_5_0_0: flow_3_5_0_0 - 1000 edge_3_5_0_0 <= 0
 inactive_no_flow_3_6_0_0: flow_3_6_0_0 - 1000 edge_3_6_0_0 <= 0
 inactive_no_flow_3_7_0_0: flow_3_7_0_0 - 1000 edge_3_7_0_0 <= 0
 inactive_no_flow_3_9_0_0: flow_3_9_0_0 - 1000 edge_3_9_0_0 <= 0
 inactive_no_flow_3_12_0_0: flow_3_12_0_0 - 1000 edge_3_12_0_0 <= 0
 inactive_no_flow_3_13_0_0: flow_3_13_0_0 - 1000 edge_3_13_0_0 <= 0
 inactive_no_flow_4_1_0_0: flow_4_1_0_0 - 1000 edge_4_1_0_0 <= 0
 inactive_no_flow_4_2_0_0: flow_4_2_0_0 - 1000 edge_4_2_0_0 <= 0
 inactive_no_flow_4_6_0_0: flow_4_6_0_0 - 1000 edge_4_6_0_0 <= 0
 inactive_no_flow_4_7_0_0: flow_4_7_0_0 - 1000 edge_4_7_0_0 <= 0
 inactive_no_flow_4_9_0_0: flow_4_9_0_0 - 1000 edge_4_9_0_0 <= 0
 inactive_no_flow_4_10_0_0: flow_4_10_0_0 - 1000 edge_4_10_0_0 <= 0
 inactive_no_flow_4_11_0_0: flow_4_11_0_0 - 1000 edge_4_11_0_0 <= 0
 inactive_no_flow_4_12_0_0: flow_4_12_0_0 - 1000 edge_4_12_0_0 <= 0
 inactive_no_flow_4_13_0_0: flow_4_13_0_0 - 1000 edge_4_13_0_0 <= 0
 inactive_no_flow_5_2_0_0: flow_5_2_0_0 - 1000 edge_5_2_0_0 <= 0
 inactive_no_flow_5_3_0_0: flow_5_3_0_0 - 1000 edge_5_3_0_0 <= 0
 inactive_no_flow_5_6_0_0: flow_5_6_0_0 - 1000 edge_5_6_0_0 <= 0
 inactive_no_flow_5_7_0_0: flow_5_7_0_0 - 1000 edge_5_7_0_0 <= 0
 inactive_no_flow_5_9_0_0: flow_5_9_0_0 - 1000 edge_5_9_0_0 <= 0
 inactive_no_flow_5_12_0_0: flow_5_12_0_0 - 1000 edge_5_12_0_0 <= 0
 inactive_no_flow_5_13_0_0: flow_5_13_0_0 - 1000 edge_5_13_0_0 <= 0
 inactive_no_flow_6_1_0_0: flow_6_1_0_0 - 1000 edge_6_1_0_0 <= 0
 inactive_no_flow_6_2_0_0: flow_6_2_0_0 - 1000 edge_6_2_0_0 <= 0
 inactive_no_flow_6_3_0_0: flow_6_3_0_0 - 1000 edge_6_3_0_0 <= 0
 inactive_no_flow_6_4_0_0: flow_6_4_0_0 - 1000 edge_6_4_0_0 <= 0
 inactive_no_flow_6_5_0_0: flow_6_5_0_0 - 1000 edge_6_5_0_0 <= 0
 inactive_no_flow_6_7_0_0: flow_6_7_0_0 - 1000 edge_6_7_0_0 <= 0
 inactive_no_flow_6_9_0_0: flow_6_9_0_0 - 1000 edge_6_9_0_0 <= 0
 inactive_no_flow_6_12_0_0: flow_6_12_0_0 - 1000 edge_6_12_0_0 <= 0
 inactive_no_flow_6_13_0_0: flow_6_13_0_0 - 1000 edge_6_13_0_0 <= 0
 inactive_no_flow_7_1_0_0: flow_7_1_0_0 - 1000 edge_7_1_0_0 <= 0
 inactive_no_flow_7_2_0_0: flow_7_2_0_0 - 1000 edge_7_2_0_0 <= 0
 inactive_no_flow_7_4_0_0: flow_7_4_0_0 - 1000 edge_7_4_0_0 <= 0
 inactive_no_flow_7_6_0_0: flow_7_6_0_0 - 1000 edge_7_6_0_0 <= 0
 inactive_no_flow_7_9_0_0: flow_7_9_0_0 - 1000 edge_7_9_0_0 <= 0
 inactive_no_flow_7_12_0_0: flow_7_12_0_0 - 1000 edge_7_12_0_0 <= 0
 inactive_no_flow_7_13_0_0: flow_7_13_0_0 - 1000 edge_7_13_0_0 <= 0
 inactive_no_flow_9_1_0_0: flow_9_1_0_0 - 1000 edge_9_1_0_0 <= 0
 inactive_no_flow_9_2_0_0: flow_9_2_0_0 - 1000 edge_9_2_0_0 <= 0
 inactive_no_flow_9_4_0_0: flow_9_4_0_0 - 1000 edge_9_4_0_0 <= 0
 inactive_no_flow_9_5_0_0: flow_9_5_0_0 - 1000 edge_9_5_0_0 <= 0
 inactive_no_flow_9_6_0_0: flow_9_6_0_0 - 1000 edge_9_6_0_0 <= 0
 inactive_no_flow_9_7_0_0: flow_9_7_0_0 - 1000 edge_9_7_0_0 <= 0
 inactive_no_flow_9_10_0_0: flow_9_10_0_0 - 1000 edge_9_10_0_0 <= 0
 inactive_no_flow_9_11_0_0: flow_9_11_0_0 - 1000 edge_9_11_0_0 <= 0
 inactive_no_flow_9_12_0_0: flow_9_12_0_0 - 1000 edge_9_12_0_0 <= 0
 inactive_no_flow_9_13_0_0: flow_9_13_0_0 - 1000 edge_9_13_0_0 <= 0
 inactive_no_flow_10_1_0_0: flow_10_1_0_0 - 1000 edge_10_1_0_0 <= 0
 inactive_no_flow_10_2_0_0: flow_10_2_0_0 - 1000 edge_10_2_0_0 <= 0
 inactive_no_flow_10_4_0_0: flow_10_4_0_0 - 1000 edge_10_4_0_0 <= 0
 inactive_no_flow_10_6_0_0: flow_10_6_0_0 - 1000 edge_10_6_0_0 <= 0
 inactive_no_flow_10_7_0_0: flow_10_7_0_0 - 1000 edge_10_7_0_0 <= 0
 inactive_no_flow_10_9_0_0: flow_10_9_0_0 - 1000 edge_10_9_0_0 <= 0
 inactive_no_flow_10_11_0_0: flow_10_11_0_0 - 1000 edge_10_11_0_0 <= 0
 inactive_no_flow_10_12_0_0: flow_10_12_0_0 - 1000 edge_10_12_0_0 <= 0
 inactive_no_flow_10_13_0_0: flow_10_13_0_0 - 1000 edge_10_13_0_0 <= 0
 inactive_no_flow_11_10_0_0: flow_11_10_0_0 - 1000 edge_11_10_0_0 <= 0
 inactive_no_flow_11_12_0_0: flow_11_12_0_0 - 1000 edge_11_12_0_0 <= 0
 inactive_no_flow_11_13_0_0: flow_11_13_0_0 - 1000 edge_11_13_0_0 <= 0
 inactive_no_flow_12_2_0_0: flow_12_2_0_0 - 1000 edge_12_2_0_0 <= 0
 inactive_no_flow_12_5_0_0: flow_12_5_0_0 - 1000 edge_12_5_0_0 <= 0
 inactive_no_flow_12_6_0_0: flow_12_6_0_0 - 1000 edge_12_6_0_0 <= 0
 inactive_no_flow_12_7_0_0: flow_12_7_0_0 - 1000 edge_12_7_0_0 <= 0
 inactive_no_flow_12_9_0_0: flow_12_9_0_0 - 1000 edge_12_9_0_0 <= 0
 inactive_no_flow_12_10_0_0: flow_12_10_0_0 - 1000 edge_12_10_0_0 <= 0
 inactive_no_flow_12_11_0_0: flow_12_11_0_0 - 1000 edge_12_11_0_0 <= 0
 inactive_no_flow_12_13_0_0: flow_12_13_0_0 - 1000 edge_12_13_0_0 <= 0
 inactive_no_flow_13_9_0_0: flow_13_9_0_0 - 1000 edge_13_9_0_0 <= 0
 inactive_no_flow_13_11_0_0: flow_13_11_0_0 - 1000 edge_13_11_0_0 <= 0
 inactive_no_flow_13_12_0_0: flow_13_12_0_0 - 1000 edge_13_12_0_0 <= 0
Bounds
Binaries
 edge_0_1_0_0 edge_0_2_0_0 edge_0_3_0_0 edge_0_4_0_0 edge_0_5_0_0
 edge_0_6_0_0 edge_0_7_0_0 edge_0_9_0_0 edge_0_12_0_0 edge_1_2_0_0
 edge_1_4_0_0 edge_1_6_0_0 edge_1_7_0_0 edge_1_9_0_0 edge_1_10_0_0
 edge_1_11_0_0 edge_1_12_0_0 edge_1_13_0_0 edge_2_1_0_0 edge_2_2_0_0
 edge_2_3_0_0 edge_2_4_0_0 edge_2_5_0_0 edge_2_6_0_0 edge_2_7_0_0
 edge_2_9_0_0 edge_2_10_0_0 edge_2_11_0_0 edge_2_12_0_0 edge_2_13_0_0
 edge_3_2_0_0 edge_3_5_0_0 edge_3_6_0_0 edge_3_7_0_0 edge_3_9_0_0
 edge_3_12_0_0 edge_3_13_0_0 edge_4_1_0_0 edge_4_2_0_0 edge_4_6_0_0
 edge_4_7_0_0 edge_4_9_0_0 edge_4_10_0_0 edge_4_11_0_0 edge_4_12_0_0
 edge_4_13_0_0 edge_5_2_0_0 edge_5_3_0_0 edge_5_6_0_0 edge_5_7_0_0
 edge_5_9_0_0 edge_5_12_0_0 edge_5_13_0_0 edge_6_1_0_0 edge_6_2_0_0
 edge_6_3_0_0 edge_6_4_0_0 edge_6_5_0_0 edge_6_7_0_0 edge_6_9_0_0
 edge_6_12_0_0 edge_6_13_0_0 edge_7_1_0_0 edge_7_2_0_0 edge_7_4_0_0
 edge_7_6_0_0 edge_7_9_0_0 edge_7_12_0_0 edge_7_13_0_0 edge_9_1_0_0
 edge_9_2_0_0 edge_9_4_0_0 edge_9_5_0_0 edge_9_6_0_0 edge_9_7_0_0
 edge_9_10_0_0 edge_9_11_0_0 edge_9_12_0_0 edge_9_13_0_0 edge_10_1_0_0
 edge_10_2_0_0 edge_10_4_0_0 edge_10_6_0_0 edge_10_7_0_0 edge_10_9_0_0
 edge_10_11_0_0 edge_10_12_0_0 edge_10_13_0_0 edge_11_10_0_0 edge_11_12_0_0
 edge_11_13_0_0 edge_12_2_0_0 edge_12_5_0_0 edge_12_6_0_0 edge_12_7_0_0
 edge_12_9_0_0 edge_12_10_0_0 edge_12_11_0_0 edge_12_13_0_0 edge_13_9_0_0
 edge_13_11_0_0 edge_13_12_0_0
End
